Bi
1.0
4.533000  0.000000  0.000000
-2.266500  3.924842  0.000000
0.000000  0.000000  11.796000
Bi
2
Direct
0.233  0.233  0.233
0.767  0.767  0.767