Bi
   1.0
     2.2730000019010919    1.3123171629656154    3.9540001551333321
    -2.2730000019010923    1.3123171629656154    3.9540001551333321
     0.0000000000000001   -2.6246343259312308    3.9540001551333321
Bi
   2
Direct
  0.2338899870000000  0.2338899870000000  0.2338899870000000
  0.7661100130000001  0.7661100130000000  0.7661100130000000