Cu
3.615
 0.000000 0.500000 0.500000
 0.500000 0.000000 0.500000
 0.500000 0.500000 0.000000
Cu
1
Direct
 0.000000 0.000000 0.000000
